% seed = 8554379

mint = 56;
% maxt = 133;

nActs = 22;
dur = [0,10,3,10,7,6,10,8,4,8,4,9,5,6,3,8,3,4,10,10,5,0];

nSkills = 4;
sreq = [| 0,0,0,0,
	| 3,0,0,3,
	| 0,1,2,0,
	| 3,2,0,0,
	| 1,0,3,0,
	| 0,3,2,0,
	| 0,0,1,3,
	| 2,3,0,0,
	| 0,3,1,0,
	| 0,0,1,3,
	| 0,3,2,0,
	| 0,0,3,1,
	| 0,3,3,0,
	| 3,3,0,0,
	| 2,0,2,0,
	| 1,1,0,0,
	| 0,0,1,2,
	| 0,0,1,1,
	| 0,1,0,2,
	| 0,1,1,0,
	| 0,2,0,1,
	| 0,0,0,0, |];

nResources = 10;
mastery = [| false,false,true,false,
	| false,false,true,false,
	| false,true,true,true,
	| true,true,false,true,
	| false,false,true,true,
	| false,true,true,true,
	| false,true,true,false,
	| true,true,false,false,
	| true,false,true,true,
	| true,true,false,true, |];

nPrecs = 31;
pred = [1,1,1,2,2,3,4,5,5,5,6,6,7,8,8,8,9,10,11,11,11,12,13,14,15,16,17,18,19,20,21];
succ = [2,3,4,9,16,7,5,11,6,8,21,15,14,9,18,20,10,14,12,13,16,20,17,17,19,20,19,19,22,22,22];

nUnrels = 113;
unpred = [2,2,2,2,2,2,2,2,2,2,2,2,3,3,3,3,3,3,3,3,3,3,3,3,3,3,4,5,6,6,6,6,6,6,6,6,6,6,6,6,7,7,7,7,7,7,7,7,7,7,7,8,8,8,8,8,8,9,9,9,9,9,9,9,9,10,10,10,10,10,10,10,10,11,11,11,11,12,12,12,12,12,12,12,12,13,13,13,13,13,13,14,14,14,14,14,15,15,15,15,15,16,16,16,16,17,17,17,18,18,19,19,20];
unsucc = [3,4,5,6,7,8,11,12,13,15,18,21,4,5,6,8,9,10,11,12,13,15,16,18,20,21,7,7,7,8,9,10,11,12,13,14,16,17,18,20,8,9,10,11,12,13,15,16,18,20,21,11,12,13,15,16,21,11,12,13,15,16,18,20,21,11,12,13,15,16,18,20,21,14,15,18,21,13,14,15,16,17,18,19,21,14,15,16,18,20,21,15,16,18,20,21,16,17,18,20,21,17,18,19,21,18,20,21,20,21,20,21,21];

USEFUL_RES = [{},
	{3,4,5,6,8,9,10},
	{1,2,3,4,5,6,7,8,9,10},
	{3,4,6,7,8,9,10},
	{1,2,3,4,5,6,7,8,9,10},
	{1,2,3,4,5,6,7,8,9,10},
	{1,2,3,4,5,6,7,9,10},
	{3,4,6,7,8,9,10},
	{1,2,3,4,5,6,7,8,9,10},
	{1,2,3,4,5,6,7,9,10},
	{1,2,3,4,5,6,7,8,9,10},
	{1,2,3,4,5,6,7,9,10},
	{1,2,3,4,5,6,7,8,9,10},
	{3,4,6,7,8,9,10},
	{1,2,3,4,5,6,7,8,9,10},
	{3,4,6,7,8,9,10},
	{1,2,3,4,5,6,7,9,10},
	{1,2,3,4,5,6,7,9,10},
	{3,4,5,6,7,8,9,10},
	{1,2,3,4,5,6,7,8,9,10},
	{3,4,5,6,7,8,9,10},
	{}];

POTENTIAL_ACT = [{3,5,6,7,9,10,11,12,13,15,17,18,20},
	{3,5,6,7,9,10,11,12,13,15,17,18,20},
	{2,3,4,5,6,7,8,9,10,11,12,13,14,15,16,17,18,19,20,21},
	{2,3,4,5,6,7,8,9,10,11,12,13,14,15,16,17,18,19,20,21},
	{2,3,5,6,7,9,10,11,12,13,15,17,18,19,20,21},
	{2,3,4,5,6,7,8,9,10,11,12,13,14,15,16,17,18,19,20,21},
	{3,4,5,6,7,8,9,10,11,12,13,14,15,16,17,18,19,20,21},
	{2,3,4,5,6,8,9,11,13,14,15,16,19,20,21},
	{2,3,4,5,6,7,8,9,10,11,12,13,14,15,16,17,18,19,20,21},
	{2,3,4,5,6,7,8,9,10,11,12,13,14,15,16,17,18,19,20,21}];
